Optimizer called with the following parameters:
{'focal_plane_mask': {'field_stop_radius': None,
                      'grayscale': True,
                      'num_pix': 150,
                      'radius': 3.7},
 'image': {'bandwidth': 0.15,
           'contrast': 10,
           'iwa': 3.6,
           'num_wavelengths': 5,
           'owa': 14.0,
           'resolution': 2},
 'instrument': {'inst_name': 'USORT'},
 'lyot_stop': {'alignment_tolerance': 0,
               'filename': 'USORT/LS_USORT_hex_ID0000_OD0990_ovsamp16_N0128.fits',
               'num_lyot_stops': 1},
 'method': {'edge_width_for_prior': 2,
            'ending_scale': 1,
            'force_no_hermitian_symmetry': False,
            'force_no_x_mirror_symmetry': False,
            'force_no_y_mirror_symmetry': False,
            'initial_throughput_estimate': 1,
            'maximize_planet_throughput': True,
            'num_throughput_iterations': 2,
            'starting_scale': 1},
 'pupil': {'N': 128,
           'filename': 'USORT/TelAp_USORT_offaxis_ovsamp16_N0128.fits'},
 'solver': {'crossover': 0,
            'method': 2,
            'num_threads': 0}}

File organization:
{'analysis_dir': '/user/bnickson/GitHub/LUVex_TelAps/aplc_optimization/surveys/usort_offaxis_survey_N0128_telserv3/FPM37_IWA36/analysis',
 'drivers_dir': '/user/bnickson/GitHub/LUVex_TelAps/aplc_optimization/surveys/usort_offaxis_survey_N0128_telserv3/FPM37_IWA36/drivers',
 'input_files_dir': '/user/bnickson/GitHub/LUVex_TelAps/aplc_optimization/masks',
 'log_dir': '/user/bnickson/GitHub/LUVex_TelAps/aplc_optimization/surveys/usort_offaxis_survey_N0128_telserv3/FPM37_IWA36/logs',
 'solution_dir': '/user/bnickson/GitHub/LUVex_TelAps/aplc_optimization/surveys/usort_offaxis_survey_N0128_telserv3/FPM37_IWA36/solutions',
 'survey_dir': '/user/bnickson/GitHub/LUVex_TelAps/aplc_optimization/surveys/usort_offaxis_survey_N0128_telserv3/FPM37_IWA36'}

Telescope pupil:
   Mirror symmetry in x: yes
   Mirror symmetry in y: yes

Lyot stop #0:
   Mirror symmetry in x: yes
Lyot stop #0:
   Mirror symmetry in y: yes

Complete APLC:
   Mirror symmetry in x: yes
   Mirror symmetry in y: yes

Starting optimization at scale 1 with 2726 variables and 2885 constraints.
Creating model...
Set parameter Username
Academic license - for non-commercial use only - expires 2024-10-25
Set parameter Crossover to value 0
Set parameter Method to value 2
Calculating and adding constraints...
Wavelength 1/5; Variable 1000/2726
Wavelength 1/5; Variable 2000/2726
Wavelength 2/5; Variable 1000/2726
Wavelength 2/5; Variable 2000/2726
Wavelength 3/5; Variable 1000/2726
Wavelength 3/5; Variable 2000/2726
Wavelength 4/5; Variable 1000/2726
Wavelength 4/5; Variable 2000/2726
Wavelength 5/5; Variable 1000/2726
Wavelength 5/5; Variable 2000/2726
Start optimization...
Gurobi Optimizer version 10.0.3 build v10.0.3rc0 (linux64)

CPU model: Intel(R) Xeon(R) Gold 6146 CPU @ 3.20GHz, instruction set [SSE2|AVX|AVX2|AVX512]
Thread count: 24 physical cores, 48 logical processors, using up to 24 threads

Optimize a model with 5770 rows, 2726 columns and 15729020 nonzeros
Model fingerprint: 0x30eb7405
Coefficient statistics:
  Matrix range     [4e-12, 6e-04]
  Objective range  [4e-03, 1e+00]
  Bounds range     [1e+00, 1e+00]
  RHS range        [1e-05, 1e-05]
Presolve removed 0 rows and 0 columns (presolve time = 5s) ...
Presolve time: 5.68s
Presolved: 2726 rows, 8496 columns, 15731746 nonzeros
Error: invalid user locale; possible fix is to set the system environment
       variable 'LC_ALL' to a valid locale (e.g., to 'C')
Ordering time: 0.04s

Barrier statistics:
 AA' NZ     : 3.714e+06
 Factor NZ  : 3.717e+06 (roughly 34 MB of memory)
 Factor Ops : 6.756e+09 (less than 1 second per iteration)
 Threads    : 24

                  Objective                Residual
Iter       Primal          Dual         Primal    Dual     Compl     Time
   0   5.61427262e+03  0.00000000e+00  0.00e+00 0.00e+00  9.74e-01     7s
   1   2.97363307e+03  6.87677427e+02  0.00e+00 1.55e-01  3.47e-01     8s
   2   2.03210005e+03  1.29284997e+03  0.00e+00 6.22e-02  1.13e-01     8s
   3   1.84347020e+03  1.39165166e+03  0.00e+00 3.99e-02  6.66e-02     8s
   4   1.77395085e+03  1.40521823e+03  0.00e+00 3.55e-02  5.74e-02     9s
   5   1.73667906e+03  1.41306148e+03  0.00e+00 3.27e-02  5.28e-02     9s
   6   1.67251809e+03  1.42174246e+03  0.00e+00 2.83e-02  4.48e-02     9s
   7   1.59902705e+03  1.42316095e+03  0.00e+00 2.22e-02  3.58e-02    10s
   8   1.54853086e+03  1.41863656e+03  0.00e+00 2.11e-02  3.23e-02    10s
   9   1.52035620e+03  1.41431818e+03  0.00e+00 1.97e-02  2.96e-02    10s
  10   1.46483411e+03  1.40549124e+03  0.00e+00 1.75e-02  2.46e-02    11s
  11   1.42130367e+03  1.39476548e+03  0.00e+00 1.54e-02  2.06e-02    11s
  12   1.37879703e+03  1.38757382e+03  0.00e+00 1.45e-02  1.76e-02    11s
  13   1.35744550e+03  1.37553752e+03  0.00e+00 1.29e-02  1.54e-02    12s
  14   1.33407142e+03  1.36232203e+03  0.00e+00 1.17e-02  1.36e-02    12s
  15   1.30962165e+03  1.34572882e+03  0.00e+00 1.00e-02  1.11e-02    12s
  16   1.30576355e+03  1.33866923e+03  0.00e+00 9.37e-03  1.05e-02    13s
  17   1.28266086e+03  1.32315123e+03  0.00e+00 7.97e-03  8.04e-03    13s
  18   1.26736818e+03  1.30509819e+03  0.00e+00 6.47e-03  6.23e-03    13s
  19   1.25762021e+03  1.29520202e+03  0.00e+00 5.69e-03  5.19e-03    14s
  20   1.24661189e+03  1.27958956e+03  0.00e+00 4.45e-03  3.85e-03    14s
  21   1.24221878e+03  1.27090674e+03  0.00e+00 3.82e-03  3.33e-03    14s
  22   1.23978176e+03  1.26834892e+03  0.00e+00 3.63e-03  3.10e-03    15s
  23   1.23584145e+03  1.26142958e+03  0.00e+00 3.12e-03  2.67e-03    15s
  24   1.22715302e+03  1.24704166e+03  0.00e+00 2.13e-03  1.68e-03    16s
  25   1.22094359e+03  1.23704868e+03  0.00e+00 1.44e-03  9.28e-04    16s
  26   1.21984231e+03  1.23090942e+03  0.00e+00 1.02e-03  6.97e-04    17s
  27   1.21866449e+03  1.22716348e+03  0.00e+00 7.70e-04  5.14e-04    17s
  28   1.21784751e+03  1.22529477e+03  0.00e+00 6.44e-04  4.01e-04    17s
  29   1.21712829e+03  1.22271932e+03  0.00e+00 4.70e-04  2.80e-04    18s
  30   1.21656374e+03  1.22000198e+03  1.31e-05 2.87e-04  1.68e-04    18s
  31   1.21617097e+03  1.21765836e+03  2.14e-05 1.29e-04  8.14e-05    18s
  32   1.21598284e+03  1.21700045e+03  2.26e-05 8.46e-05  4.97e-05    19s
  33   1.21595988e+03  1.21684046e+03  1.97e-05 7.40e-05  4.43e-05    20s
  34   1.21595223e+03  1.21673338e+03  4.44e-05 6.69e-05  4.13e-05    20s
  35   1.21594772e+03  1.21670489e+03  4.31e-05 6.50e-05  4.03e-05    21s
  36   1.21593336e+03  1.21651045e+03  8.44e-05 5.21e-05  3.50e-05    21s
  37   1.21593252e+03  1.21649656e+03  8.09e-05 5.12e-05  3.46e-05    22s
  38   1.21593205e+03  1.21649122e+03  1.18e-04 5.08e-05  3.44e-05    22s
  39   1.21589535e+03  1.21636528e+03  1.08e-04 4.25e-05  2.85e-05    23s
  40   1.21588956e+03  1.21630618e+03  1.82e-04 3.86e-05  2.46e-05    24s
  41   1.21588969e+03  1.21630475e+03  1.66e-04 3.85e-05  2.45e-05    24s
  42   1.21587978e+03  1.21626563e+03  2.07e-04 3.59e-05  2.29e-05    25s
  43   1.21587809e+03  1.21624476e+03  2.08e-04 3.46e-05  2.24e-05    25s
  44   1.21587786e+03  1.21624398e+03  2.20e-04 3.45e-05  2.24e-05    26s
  45   1.21587751e+03  1.21624364e+03  2.31e-04 3.45e-05  2.23e-05    26s
  46   1.21587331e+03  1.21623675e+03  2.36e-04 3.40e-05  2.19e-05    27s
  47   1.21587331e+03  1.21623674e+03  2.38e-04 3.40e-05  2.19e-05    28s
  48   1.21587227e+03  1.21623316e+03  3.20e-04 3.38e-05  2.17e-05    29s
  49   1.21587198e+03  1.21623319e+03  3.36e-04 3.38e-05  2.17e-05    29s
  50   1.21586884e+03  1.21622086e+03  3.47e-04 3.30e-05  2.12e-05    30s
  51   1.21586355e+03  1.21621018e+03  3.87e-04 3.23e-05  2.05e-05    31s
  52   1.21586292e+03  1.21620935e+03  3.77e-04 3.22e-05  2.05e-05    31s
  53   1.21585575e+03  1.21617175e+03  3.85e-04 2.97e-05  1.91e-05    32s
  54   1.21585488e+03  1.21616857e+03  4.14e-04 2.95e-05  1.90e-05    32s
  55   1.21585396e+03  1.21616583e+03  3.87e-04 2.94e-05  1.89e-05    33s
  56   1.21585174e+03  1.21616221e+03  3.65e-04 2.91e-05  1.86e-05    33s
  57   1.21585074e+03  1.21615812e+03  3.80e-04 2.88e-05  1.85e-05    34s
  58   1.21584359e+03  1.21614810e+03  4.13e-04 2.82e-05  1.76e-05    34s
  59   1.21584232e+03  1.21614567e+03  4.54e-04 2.80e-05  1.75e-05    35s
  60   1.21584176e+03  1.21614564e+03  4.25e-04 2.80e-05  1.75e-05    35s
  61   1.21584029e+03  1.21614498e+03  3.40e-04 2.80e-05  1.75e-05    36s
  62   1.21583479e+03  1.21612999e+03  3.59e-04 2.70e-05  1.68e-05    37s
  63   1.21582718e+03  1.21610603e+03  2.96e-04 2.54e-05  1.57e-05    37s
  64   1.21582717e+03  1.21610600e+03  2.93e-04 2.54e-05  1.57e-05    38s
  65   1.21582686e+03  1.21610567e+03  3.31e-04 2.54e-05  1.57e-05    39s
  66   1.21582309e+03  1.21609507e+03  3.80e-04 2.47e-05  1.52e-05    39s
  67   1.21582197e+03  1.21608078e+03  3.93e-04 2.37e-05  1.49e-05    40s
  68   1.21582219e+03  1.21607952e+03  3.78e-04 2.37e-05  1.48e-05    41s
  69   1.21582009e+03  1.21607564e+03  3.40e-04 2.34e-05  1.46e-05    41s
  70   1.21581958e+03  1.21607513e+03  3.21e-04 2.34e-05  1.45e-05    42s
  71   1.21581683e+03  1.21606150e+03  5.64e-04 2.25e-05  1.40e-05    43s
  72   1.21581672e+03  1.21606081e+03  5.70e-04 2.24e-05  1.40e-05    43s
  73   1.21581472e+03  1.21605253e+03  6.12e-04 2.19e-05  1.37e-05    44s
  74   1.21581470e+03  1.21605247e+03  5.71e-04 2.19e-05  1.37e-05    44s
  75   1.21581326e+03  1.21604979e+03  5.68e-04 2.17e-05  1.35e-05    45s
  76   1.21581196e+03  1.21604509e+03  5.84e-04 2.14e-05  1.34e-05    45s
  77   1.21581261e+03  1.21604405e+03  5.80e-04 2.13e-05  1.33e-05    46s
  78   1.21581238e+03  1.21604317e+03  5.33e-04 2.13e-05  1.33e-05    46s
  79   1.21581143e+03  1.21603578e+03  8.67e-04 2.08e-05  1.32e-05    47s

Barrier performed 79 iterations in 47.07 seconds (47.18 work units)
Sub-optimal termination - objective 1.21586884e+03

Optimization finished!
Restarting optimization for throughput iteration 1...
Gurobi Optimizer version 10.0.3 build v10.0.3rc0 (linux64)

CPU model: Intel(R) Xeon(R) Gold 6146 CPU @ 3.20GHz, instruction set [SSE2|AVX|AVX2|AVX512]
Thread count: 24 physical cores, 48 logical processors, using up to 24 threads

Optimize a model with 5770 rows, 2726 columns and 15729020 nonzeros
Model fingerprint: 0x2be01317
Coefficient statistics:
  Matrix range     [4e-12, 6e-04]
  Objective range  [4e-03, 1e+00]
  Bounds range     [1e+00, 1e+00]
  RHS range        [6e-06, 6e-06]
Presolve time: 5.20s
Presolved: 2726 rows, 8496 columns, 15731746 nonzeros
Ordering time: 0.04s

Barrier statistics:
 AA' NZ     : 3.714e+06
 Factor NZ  : 3.717e+06 (roughly 34 MB of memory)
 Factor Ops : 6.756e+09 (less than 1 second per iteration)
 Threads    : 24

                  Objective                Residual
Iter       Primal          Dual         Primal    Dual     Compl     Time
   0   5.54476528e+03  0.00000000e+00  0.00e+00 0.00e+00  9.65e-01     7s
   1   2.90351654e+03  6.87386634e+02  0.00e+00 1.54e-01  3.41e-01     7s
   2   1.97407110e+03  1.23319808e+03  0.00e+00 6.40e-02  1.18e-01     8s
   3   1.86797584e+03  1.33338505e+03  0.00e+00 4.56e-02  8.35e-02     8s
   4   1.81207123e+03  1.34385368e+03  0.00e+00 4.25e-02  7.72e-02     8s
   5   1.77672250e+03  1.35392440e+03  0.00e+00 3.98e-02  7.25e-02     9s
   6   1.67902512e+03  1.36357255e+03  0.00e+00 3.62e-02  6.31e-02     9s
   7   1.51071950e+03  1.36075977e+03  0.00e+00 3.07e-02  5.01e-02     9s
   8   1.41050391e+03  1.35166744e+03  0.00e+00 2.57e-02  3.97e-02    10s
   9   1.37519365e+03  1.34374304e+03  0.00e+00 2.39e-02  3.62e-02    10s
  10   1.33931782e+03  1.33566499e+03  0.00e+00 2.25e-02  3.31e-02    10s
  11   1.29853636e+03  1.32026424e+03  0.00e+00 2.00e-02  2.88e-02    10s
  12   1.24508727e+03  1.31317155e+03  0.00e+00 1.93e-02  2.56e-02    11s
  13   1.20238456e+03  1.29301459e+03  0.00e+00 1.72e-02  2.12e-02    11s
  14   1.18371638e+03  1.27417662e+03  0.00e+00 1.55e-02  1.85e-02    11s
  15   1.16025930e+03  1.24681147e+03  0.00e+00 1.30e-02  1.52e-02    12s
  16   1.14638983e+03  1.23015915e+03  0.00e+00 1.18e-02  1.36e-02    12s
  17   1.12311021e+03  1.20833175e+03  0.00e+00 1.01e-02  1.09e-02    12s
  18   1.10245920e+03  1.18951779e+03  0.00e+00 8.80e-03  8.63e-03    13s
  19   1.09428367e+03  1.17195267e+03  0.00e+00 7.61e-03  7.36e-03    13s
  20   1.08807634e+03  1.16783154e+03  0.00e+00 7.36e-03  6.81e-03    14s
  21   1.08167698e+03  1.15751939e+03  0.00e+00 6.70e-03  6.01e-03    14s
  22   1.07347557e+03  1.15011887e+03  0.00e+00 6.24e-03  5.31e-03    14s
  23   1.06709986e+03  1.13569616e+03  0.00e+00 5.43e-03  4.62e-03    15s
  24   1.05999708e+03  1.12787836e+03  0.00e+00 4.98e-03  3.98e-03    15s
  25   1.05662059e+03  1.11897174e+03  0.00e+00 4.48e-03  3.58e-03    15s
  26   1.05478337e+03  1.10962385e+03  0.00e+00 4.00e-03  3.27e-03    16s
  27   1.05102243e+03  1.10705610e+03  0.00e+00 3.86e-03  2.96e-03    16s
  28   1.04977324e+03  1.10397320e+03  0.00e+00 3.69e-03  2.81e-03    17s
  29   1.04707081e+03  1.10052920e+03  0.00e+00 3.51e-03  2.55e-03    17s
  30   1.04365436e+03  1.08818425e+03  0.00e+00 2.85e-03  2.08e-03    17s
  31   1.04144421e+03  1.08070527e+03  0.00e+00 2.48e-03  1.80e-03    18s
  32   1.04025126e+03  1.07997823e+03  0.00e+00 2.44e-03  1.71e-03    18s
  33   1.03811062e+03  1.07761578e+03  0.00e+00 2.32e-03  1.61e-03    19s
  34   1.03838064e+03  1.07137629e+03  0.00e+00 2.02e-03  1.48e-03    19s
  35   1.03642111e+03  1.06909947e+03  0.00e+00 1.92e-03  1.34e-03    19s
  36   1.03428213e+03  1.05829418e+03  0.00e+00 1.43e-03  1.04e-03    20s
  37   1.03224877e+03  1.05130511e+03  0.00e+00 1.11e-03  7.79e-04    20s
  38   1.03175322e+03  1.04924785e+03  0.00e+00 1.01e-03  7.05e-04    20s
  39   1.03158394e+03  1.04575646e+03  0.00e+00 8.50e-04  6.38e-04    21s
  40   1.03098834e+03  1.04391621e+03  0.00e+00 7.63e-04  5.57e-04    21s
  41   1.02950089e+03  1.04257474e+03  0.00e+00 7.01e-04  4.09e-04    22s
  42   1.02883386e+03  1.03734344e+03  0.00e+00 4.55e-04  2.65e-04    22s
  43   1.02814265e+03  1.03379730e+03  1.51e-05 2.89e-04  1.48e-04    22s
  44   1.02790138e+03  1.03097795e+03  4.71e-05 1.59e-04  8.41e-05    23s
  45   1.02776425e+03  1.02987132e+03  5.24e-05 1.08e-04  5.59e-05    23s
  46   1.02775768e+03  1.02940455e+03  7.12e-05 8.66e-05  4.85e-05    24s
  47   1.02772677e+03  1.02906758e+03  7.03e-05 7.11e-05  4.08e-05    24s
  48   1.02772671e+03  1.02906706e+03  6.57e-05 7.11e-05  4.08e-05    25s
  49   1.02768856e+03  1.02862619e+03  8.63e-05 5.08e-05  3.10e-05    25s
  50   1.02768735e+03  1.02860806e+03  1.14e-04 5.00e-05  2.66e-05    26s
  51   1.02768705e+03  1.02860711e+03  1.75e-04 5.00e-05  2.66e-05    27s
  52   1.02768706e+03  1.02860709e+03  1.31e-04 5.00e-05  2.66e-05    27s
  53   1.02767854e+03  1.02846251e+03  2.58e-04 4.34e-05  2.39e-05    28s
  54   1.02767445e+03  1.02844794e+03  3.14e-04 4.27e-05  2.34e-05    29s
  55   1.02766001e+03  1.02835151e+03  4.07e-04 3.83e-05  2.13e-05    29s
  56   1.02765931e+03  1.02834888e+03  3.64e-04 3.82e-05  2.12e-05    30s
  57   1.02765510e+03  1.02832072e+03  3.62e-04 3.69e-05  2.06e-05    31s
  58   1.02765422e+03  1.02831862e+03  3.88e-04 3.68e-05  2.05e-05    31s
  59   1.02765434e+03  1.02831859e+03  3.63e-04 3.68e-05  2.05e-05    32s
  60   1.02765118e+03  1.02829861e+03  3.78e-04 3.59e-05  2.00e-05    33s
  61   1.02764276e+03  1.02825823e+03  3.68e-04 3.40e-05  1.88e-05    33s
  62   1.02764197e+03  1.02824750e+03  3.80e-04 3.35e-05  1.86e-05    34s
  63   1.02764182e+03  1.02824674e+03  3.95e-04 3.35e-05  1.85e-05    35s
  64   1.02764154e+03  1.02824607e+03  3.84e-04 3.34e-05  1.85e-05    35s
  65   1.02764154e+03  1.02824606e+03  3.95e-04 3.34e-05  1.85e-05    36s
  66   1.02764119e+03  1.02824511e+03  3.75e-04 3.34e-05  1.85e-05    37s
  67   1.02763868e+03  1.02823154e+03  3.73e-04 3.28e-05  1.82e-05    37s
  68   1.02763570e+03  1.02822145e+03  3.81e-04 3.23e-05  1.78e-05    38s
  69   1.02763153e+03  1.02820625e+03  5.15e-04 3.16e-05  1.73e-05    39s
  70   1.02763177e+03  1.02820565e+03  5.03e-04 3.16e-05  1.73e-05    40s
  71   1.02763162e+03  1.02820547e+03  5.19e-04 3.16e-05  1.73e-05    40s

Barrier performed 71 iterations in 40.40 seconds (40.23 work units)
Sub-optimal termination - objective 1.02767854e+03

/user/bnickson/GitHub/LUVex_TelAps/aplc_optimization/surveys/usort_offaxis_survey_N0128_telserv3/FPM37_IWA36/drivers/07_USORT_N128_FPM370M0150_IWA0360_OWA01400_C10_BW15_Nlam5_LS_ID_ID00_ODOD09_ls_0_ovsamp16_N.py:102: DeprecationWarning: circular_aperture is deprecated. Its new name is make_circular_aperture.
  dark_zone_mask = circular_aperture(img_owa * 2)(focal_grid) - circular_aperture(img_iwa * 2)(focal_grid)
/user/bnickson/GitHub/LUVex_TelAps/aplc_optimization/surveys/usort_offaxis_survey_N0128_telserv3/FPM37_IWA36/drivers/07_USORT_N128_FPM370M0150_IWA0360_OWA01400_C10_BW15_Nlam5_LS_ID_ID00_ODOD09_ls_0_ovsamp16_N.py:110: DeprecationWarning: circular_aperture is deprecated. Its new name is make_circular_aperture.
  focal_plane_mask = 1 - evaluate_supersampled(circular_aperture(2 * fpm_radius), focal_mask_grid, 8)
WARNING: VerifyWarning: Keyword name 'LS_ALIGN_TOl' is greater than 8 characters or contains characters not allowed by the FITS standard; a HIERARCH card will be created. [astropy.io.fits.card]
WARNING: VerifyWarning: Keyword name 'LS_NUM_STOPS' is greater than 8 characters or contains characters not allowed by the FITS standard; a HIERARCH card will be created. [astropy.io.fits.card]
WARNING: VerifyWarning: Keyword name 'PROG_START' is greater than 8 characters or contains characters not allowed by the FITS standard; a HIERARCH card will be created. [astropy.io.fits.card]
WARNING: VerifyWarning: Keyword name 'PROG_EDGE' is greater than 8 characters or contains characters not allowed by the FITS standard; a HIERARCH card will be created. [astropy.io.fits.card]
WARNING: VerifyWarning: Keyword name 'THRPT_ITER' is greater than 8 characters or contains characters not allowed by the FITS standard; a HIERARCH card will be created. [astropy.io.fits.card]
WARNING: VerifyWarning: Keyword name 'THRPT_ESTIM' is greater than 8 characters or contains characters not allowed by the FITS standard; a HIERARCH card will be created. [astropy.io.fits.card]
WARNING: VerifyWarning: Keyword name 'MAX_THRPT' is greater than 8 characters or contains characters not allowed by the FITS standard; a HIERARCH card will be created. [astropy.io.fits.card]
WARNING: VerifyWarning: Keyword name 'SLV_THRDS' is greater than 8 characters or contains characters not allowed by the FITS standard; a HIERARCH card will be created. [astropy.io.fits.card]
WARNING: VerifyWarning: Keyword name 'SLV_XOVER' is greater than 8 characters or contains characters not allowed by the FITS standard; a HIERARCH card will be created. [astropy.io.fits.card]
Optimization finished!
